PROBLEM NAME: eil51_n6
KNAPSACK DATA TYPE: uncorrelated, similar weights
DIMENSION: 6
NUMBER OF ITEMS: 25
CAPACITY OF KNAPSACK: 1364318
MIN SPEED: 0.1
MAX SPEED: 1
RENTING RATIO: 13.54
EDGE_WEIGHT_TYPE: CEIL_2D
NODE_COORD_SECTION	(INDEX, X, Y):
1	31	62
2	52	41
3	27	23
4	57	58
5	62	42
6	43	67
ITEMS SECTION	(INDEX, PROFIT, WEIGHT, ASSIGNED NODE NUMBER):
1	954	100041	6
2	938	100052	6
3	936	100010	6
4	883	100046	6
5	851	100076	6
6	696	100024	4
7	675	100044	4
8	586	100072	4
9	539	100027	4
10	519	100052	4
11	498	100049	5
12	486	100051	5
13	454	100047	5
14	355	100033	5
15	354	100012	5
16	354	100087	2
17	337	100081	2
18	280	100089	2
19	139	100063	2
20	139	100011	2
21	134	100004	3
22	58	100063	3
23	17	100092	3
24	13	100073	3
25	4	100051	3
